2
1000 3
46
256 1 1000000
258 1 1000000
263 1 2000000
264 1 3000000
266 1 1000000
267 1 1000000
268 1 1000000
269 1 1000000
270 1 1000000
408 1 1000000
274 1 2000000
275 1 1000000
279 1 2000000
280 1 1000000
282 1 2000000
284 1 1000000
296 1 1000000
412 1 1000000
300 1 1000000
429 1 1000000
432 1 2000000
308 1 1000000
439 1 1000000
436 1 1000000
314 1 2000000
315 1 1000000
444 1 1000000
450 1 1000000
455 1 1000000
329 1 1000000
482 1 1000000
334 1 1000000
478 1 1000000
480 1 1000000
481 1 1000000
354 1 1000000
492 1 1000000
402 1 2000000
497 1 1000000
498 1 1000000
250 1 2000000
251 1 1000000
252 1 2000000
253 1 3000000
382 1 1000000
255 1 2000000
